Minimize

x_0 + x_1 + x_2 + x_3 + x_4 + x_5 + x_6 + x_7 + x_8


Subject To

a0: 2 x_0 + 5 x_1 + 8 x_2 + 9 x_3 + 21 x_4 + 23 x_5 + 25 x_6 + 27 x_7 + 29 x_8 = 16



Bounds


x_0 <= 8
x_1 <= 3
x_2 <= 2
x_3 <= 1
x_4 <= 0
x_5 <= 0
x_6 <= 0
x_7 <= 0
x_8 <= 0




General

 x_0 x_1 x_2 x_3 x_4 x_5 x_6 x_7 x_8



End
